109650
109650
109650
109650
109650
108764
108764
108257
108257
104166
104166
104166
104166
104009
100211
100211
100211
99913.3
98081.5
98081.5
98081.5
98081.5
97115.4
96994.2
96994.2
96994.2
96994.2
96167.3
95685.6
94866.6
94812.3
92623.6
92623.6
92623.6
92623.6
92623.6
89558.1
89558.1
89558.1
89558.1
89558.1
89375.2
87514.4
86228.7
85145.2
85145.2
85145.2
85145.2
84973.2
82963
82963
82963
82676.2
82676.2
82676.2
82463.3
82366.3
82366.3
82070.8
82070.8
82070.8
80028.7
80028.7
80028.7
80028.7
79654.4
79409.9
79409.9
79347.2
78931.4
78431.3
78431.3
78431.3
78431.3
78431.3
78431.3
78225
78225
78225
78225
78225
78188.1
78188.1
78188.1
78025.5
77285.3
77285.3
77285.3
77285.3
77285.3
75024.3
75024.3
74491.3
74491.3
74491.3
74491.3
74491.3
74491.3
74491.3
74491.3
